# Version 3 of creating a Si Cube & dumping images 18/10/21


# SIMULATION PARAMETERS

units           metal
dimension       3
boundary        p p p
atom_style      atomic

# VARIABLES
variable latparam equal 5.431

# ATOM DEFINITION

lattice         diamond ${latparam}
region          whole block 0 10 0 10 0 10
create_box      1 whole

#lattice        diamond ${latparam} orient x 1 0 0 orient y 0 1 0 orient z 0 0 1
create_atoms    1 box

# INTERATOMIC POTENTIAL

pair_style      meam/spline
pair_coeff      * * Si_1.meam.spline Si

# SIMULATION

# Timestep
reset_timestep  0
timestep        0.001

# Temp

mass 1 28.0

velocity all create 600 1111

# Assign Fixes

fix 1 all npt temp 300 300 0.5 iso 0 0 5 drag 1

#Thermo Output

thermo 100
thermo_style custom step lx ly lz press pxx pyy pzz pe temp
thermo_modify norm yes
#Dump

dump		2 all image 100 image.*.jpg type type &

#Run!

run 2000
unfix 1
undump 1
